

	4559156.0	60000.0


	4515380.0	210000.0
	4559156.0	60000.0
	4725127.0	45000.0


	4515380.0	210000.0
	4551207.0	135000.0
	4559156.0	60000.0
	4701885.0	45000.0
	4873713.0	30000.0


	4483595.0	195000.0
	4532831.0	180000.0
	4551207.0	135000.0
	4559156.0	60000.0
	4701885.0	45000.0
	4873713.0	30000.0


